
-24.2
-5.1
-5.0
-4.8
-4.8
-4.7
-4.7
-4.7
-4.7
-4.5
-4.4
-4.4
-4.4
-4.4
-4.4
-4.4
-4.4
-4.4
-4.4
-4.4
-9.45
-4.45
-4.25
-4.25
-4.2
-4.2
-4.15
-4.1
-4.1
-4.1
-4.1
-4.05
-4.05
-3.95
-3.95
-3.95
-3.95
-3.95
-3.95
-3.95
-3.95
-3.95
-3.9
-3.9
-3.9
-3.9
-3.9
-3.85
-3.85
-3.85
-3.85
-3.85
-3.85
-3.85
-3.85
-3.85
-3.85
-3.85
-3.85
-3.85
-3.85
-3.85
-3.85
-3.85
-3.85
-3.85
-3.85
-3.85